
  22    4
  10   10   10   10

   0   0   0   0   0   6 2 3 4 5 6 12 
   8  10  10  10  10   4 21 13 8 7 
   5  10  10  10  10   3 10 8 7 
   4  10  10  10  10   3 21 9 8 
   1  10  10  10  10   3 21 13 8 
   4  10  10  10  10   3 21 15 11 
   1  10  10  10  10   2 14 9 
   4  10  10  10  10   2 19 11 
   3  10  10  10  10   5 20 18 17 16 15 
   3  10  10  10  10   5 21 20 19 16 14 
   2  10  10  10  10   4 20 18 16 14 
   4  10  10  10  10   3 18 17 16 
   6  10  10  10  10   2 18 16 
   6  10  10  10  10   1 17 
   6  10  10  10  10   1 19 
   8  10  10  10  10   1 22
   2  10  10  10  10   1 22
   4  10  10  10  10   1 22
   2  10  10  10  10   1 22
   9  10  10  10  10   1 22
   2  10  10  10  10   1 22
   0   0   0   0   0   0 
